NAME          
ROWS
 N  OBJ
 L  c1
COLUMNS
    MARKER    'MARKER'                 'INTORG'
    x[1]      c1        113
    x[1]      OBJ       -175
    x[2]      c1        126
    x[2]      OBJ       -113
    x[3]      c1        353
    x[3]      OBJ       -371
    x[4]      c1        463
    x[4]      OBJ       -466
    x[5]      c1        445
    x[5]      OBJ       -370
    x[6]      c1        354
    x[6]      OBJ       -266
    x[7]      c1        816
    x[7]      OBJ       -826
    x[8]      c1        935
    x[8]      OBJ       -890
    x[9]      c1        413
    x[9]      OBJ       -367
    x[10]     c1        219
    x[10]     OBJ       -130
    x[11]     c1        1012
    x[11]     OBJ       -985
    x[12]     c1        732
    x[12]     OBJ       -797
    x[13]     c1        363
    x[13]     OBJ       -277
    x[14]     c1        496
    x[14]     OBJ       -573
    x[15]     c1        -4
    x[15]     OBJ       -15
    x[16]     c1        861
    x[16]     OBJ       -806
    x[17]     c1        396
    x[17]     OBJ       -339
    x[18]     c1        496
    x[18]     OBJ       -559
    x[19]     c1        978
    x[19]     OBJ       -982
    x[20]     c1        448
    x[20]     OBJ       -473
    x[21]     c1        163
    x[21]     OBJ       -88
    x[22]     c1        488
    x[22]     OBJ       -496
    x[23]     c1        556
    x[23]     OBJ       -550
    x[24]     c1        690
    x[24]     OBJ       -600
    x[25]     c1        633
    x[25]     OBJ       -713
    x[26]     c1        67
    x[26]     OBJ       -137
    x[27]     c1        682
    x[27]     OBJ       -702
    x[28]     c1        78
    x[28]     OBJ       -130
    x[29]     c1        1054
    x[29]     OBJ       -984
    x[30]     c1        216
    x[30]     OBJ       -161
    x[31]     c1        -42
    x[31]     OBJ       -11
    x[32]     c1        152
    x[32]     OBJ       -198
    x[33]     c1        331
    x[33]     OBJ       -370
    x[34]     c1        104
    x[34]     OBJ       -130
    x[35]     c1        186
    x[35]     OBJ       -262
    x[36]     c1        748
    x[36]     OBJ       -733
    x[37]     c1        131
    x[37]     OBJ       -88
    x[38]     c1        399
    x[38]     OBJ       -300
    x[39]     c1        -75
    x[39]     OBJ       -20
    x[40]     c1        150
    x[40]     OBJ       -98
RHS
    rhs       c1        8363
RANGES
BOUNDS
 BV bounds    x[1]
 BV bounds    x[2]
 BV bounds    x[3]
 BV bounds    x[4]
 BV bounds    x[5]
 BV bounds    x[6]
 BV bounds    x[7]
 BV bounds    x[8]
 BV bounds    x[9]
 BV bounds    x[10]
 BV bounds    x[11]
 BV bounds    x[12]
 BV bounds    x[13]
 BV bounds    x[14]
 BV bounds    x[15]
 BV bounds    x[16]
 BV bounds    x[17]
 BV bounds    x[18]
 BV bounds    x[19]
 BV bounds    x[20]
 BV bounds    x[21]
 BV bounds    x[22]
 BV bounds    x[23]
 BV bounds    x[24]
 BV bounds    x[25]
 BV bounds    x[26]
 BV bounds    x[27]
 BV bounds    x[28]
 BV bounds    x[29]
 BV bounds    x[30]
 BV bounds    x[31]
 BV bounds    x[32]
 BV bounds    x[33]
 BV bounds    x[34]
 BV bounds    x[35]
 BV bounds    x[36]
 BV bounds    x[37]
 BV bounds    x[38]
 BV bounds    x[39]
 BV bounds    x[40]
ENDATA
